% Auto-generated by scripts/generate_dzn.py
% problem_type   = regex
% instance       = regex_32
% source_json    = instances_json/1_medium_blowup/regex_32.json
% blowup         = 4.636363636363637
% representation = DFA

mode = 0;

var_count = 21;
n_constraints = 2;
Q = 89;
S = 3;
q0 = [1, 1];
F = [{56, 57, 58, 59, 60, 61, 62, 63, 64, 65, 66, 67, 68, 69, 70, 71, 72, 73, 74, 75, 76, 77, 78, 79, 80, 81, 82, 83, 84, 85, 86, 87, 88, 89}, {12}];
weights = [5, 6, 10, 7, 10, 2, 9, 2, 6, 3, 8, 9, 10, 4, 6, 8, 1, 2, 2, 9, 6];
d_dfa = array3d(1..2, 1..89, 1..3, [
  % k = 1
    1, 1, 2,
    3, 1, 2,
    5, 5, 4,
    7, 8, 6,
    8, 8, 6,
    10, 11, 9,
    13, 13, 12,
    11, 11, 9,
    15, 16, 14,
    18, 18, 17,
    16, 16, 14,
    20, 21, 19,
    21, 21, 19,
    23, 24, 22,
    26, 26, 25,
    24, 24, 22,
    28, 29, 27,
    29, 29, 27,
    31, 32, 30,
    34, 34, 33,
    32, 32, 30,
    36, 37, 35,
    39, 39, 38,
    37, 37, 35,
    41, 42, 40,
    42, 42, 40,
    44, 45, 43,
    47, 47, 46,
    45, 45, 43,
    49, 50, 48,
    52, 52, 51,
    50, 50, 48,
    54, 55, 53,
    55, 55, 53,
    57, 58, 56,
    60, 60, 59,
    58, 58, 56,
    62, 63, 61,
    63, 63, 61,
    65, 66, 64,
    68, 68, 67,
    66, 66, 64,
    70, 71, 69,
    73, 73, 72,
    71, 71, 69,
    75, 76, 74,
    76, 76, 74,
    78, 79, 77,
    81, 81, 80,
    79, 79, 77,
    83, 84, 82,
    84, 84, 82,
    86, 87, 85,
    89, 89, 88,
    87, 87, 85,
    3, 1, 2,
    5, 5, 4,
    1, 1, 2,
    7, 8, 6,
    8, 8, 6,
    10, 11, 9,
    13, 13, 12,
    11, 11, 9,
    15, 16, 14,
    18, 18, 17,
    16, 16, 14,
    20, 21, 19,
    21, 21, 19,
    23, 24, 22,
    26, 26, 25,
    24, 24, 22,
    28, 29, 27,
    29, 29, 27,
    31, 32, 30,
    34, 34, 33,
    32, 32, 30,
    36, 37, 35,
    39, 39, 38,
    37, 37, 35,
    41, 42, 40,
    42, 42, 40,
    44, 45, 43,
    47, 47, 46,
    45, 45, 43,
    49, 50, 48,
    52, 52, 51,
    50, 50, 48,
    54, 55, 53,
    55, 55, 53,

  % k = 2
    2, 1, 1,
    3, 2, 2,
    4, 3, 3,
    5, 4, 4,
    6, 5, 5,
    7, 6, 6,
    8, 7, 7,
    9, 8, 8,
    10, 9, 9,
    11, 10, 10,
    12, 11, 11,
    13, 12, 12,
    13, 13, 13,
    0, 0, 0,
    0, 0, 0,
    0, 0, 0,
    0, 0, 0,
    0, 0, 0,
    0, 0, 0,
    0, 0, 0,
    0, 0, 0,
    0, 0, 0,
    0, 0, 0,
    0, 0, 0,
    0, 0, 0,
    0, 0, 0,
    0, 0, 0,
    0, 0, 0,
    0, 0, 0,
    0, 0, 0,
    0, 0, 0,
    0, 0, 0,
    0, 0, 0,
    0, 0, 0,
    0, 0, 0,
    0, 0, 0,
    0, 0, 0,
    0, 0, 0,
    0, 0, 0,
    0, 0, 0,
    0, 0, 0,
    0, 0, 0,
    0, 0, 0,
    0, 0, 0,
    0, 0, 0,
    0, 0, 0,
    0, 0, 0,
    0, 0, 0,
    0, 0, 0,
    0, 0, 0,
    0, 0, 0,
    0, 0, 0,
    0, 0, 0,
    0, 0, 0,
    0, 0, 0,
    0, 0, 0,
    0, 0, 0,
    0, 0, 0,
    0, 0, 0,
    0, 0, 0,
    0, 0, 0,
    0, 0, 0,
    0, 0, 0,
    0, 0, 0,
    0, 0, 0,
    0, 0, 0,
    0, 0, 0,
    0, 0, 0,
    0, 0, 0,
    0, 0, 0,
    0, 0, 0,
    0, 0, 0,
    0, 0, 0,
    0, 0, 0,
    0, 0, 0,
    0, 0, 0,
    0, 0, 0,
    0, 0, 0,
    0, 0, 0,
    0, 0, 0,
    0, 0, 0,
    0, 0, 0,
    0, 0, 0,
    0, 0, 0,
    0, 0, 0,
    0, 0, 0,
    0, 0, 0,
    0, 0, 0,
    0, 0, 0
]);
d_nfa = array3d(1..2, 1..89, 1..3, [
  % k = 1
    {}, {}, {},
    {}, {}, {},
    {}, {}, {},
    {}, {}, {},
    {}, {}, {},
    {}, {}, {},
    {}, {}, {},
    {}, {}, {},
    {}, {}, {},
    {}, {}, {},
    {}, {}, {},
    {}, {}, {},
    {}, {}, {},
    {}, {}, {},
    {}, {}, {},
    {}, {}, {},
    {}, {}, {},
    {}, {}, {},
    {}, {}, {},
    {}, {}, {},
    {}, {}, {},
    {}, {}, {},
    {}, {}, {},
    {}, {}, {},
    {}, {}, {},
    {}, {}, {},
    {}, {}, {},
    {}, {}, {},
    {}, {}, {},
    {}, {}, {},
    {}, {}, {},
    {}, {}, {},
    {}, {}, {},
    {}, {}, {},
    {}, {}, {},
    {}, {}, {},
    {}, {}, {},
    {}, {}, {},
    {}, {}, {},
    {}, {}, {},
    {}, {}, {},
    {}, {}, {},
    {}, {}, {},
    {}, {}, {},
    {}, {}, {},
    {}, {}, {},
    {}, {}, {},
    {}, {}, {},
    {}, {}, {},
    {}, {}, {},
    {}, {}, {},
    {}, {}, {},
    {}, {}, {},
    {}, {}, {},
    {}, {}, {},
    {}, {}, {},
    {}, {}, {},
    {}, {}, {},
    {}, {}, {},
    {}, {}, {},
    {}, {}, {},
    {}, {}, {},
    {}, {}, {},
    {}, {}, {},
    {}, {}, {},
    {}, {}, {},
    {}, {}, {},
    {}, {}, {},
    {}, {}, {},
    {}, {}, {},
    {}, {}, {},
    {}, {}, {},
    {}, {}, {},
    {}, {}, {},
    {}, {}, {},
    {}, {}, {},
    {}, {}, {},
    {}, {}, {},
    {}, {}, {},
    {}, {}, {},
    {}, {}, {},
    {}, {}, {},
    {}, {}, {},
    {}, {}, {},
    {}, {}, {},
    {}, {}, {},
    {}, {}, {},
    {}, {}, {},
    {}, {}, {},

  % k = 2
    {}, {}, {},
    {}, {}, {},
    {}, {}, {},
    {}, {}, {},
    {}, {}, {},
    {}, {}, {},
    {}, {}, {},
    {}, {}, {},
    {}, {}, {},
    {}, {}, {},
    {}, {}, {},
    {}, {}, {},
    {}, {}, {},
    {}, {}, {},
    {}, {}, {},
    {}, {}, {},
    {}, {}, {},
    {}, {}, {},
    {}, {}, {},
    {}, {}, {},
    {}, {}, {},
    {}, {}, {},
    {}, {}, {},
    {}, {}, {},
    {}, {}, {},
    {}, {}, {},
    {}, {}, {},
    {}, {}, {},
    {}, {}, {},
    {}, {}, {},
    {}, {}, {},
    {}, {}, {},
    {}, {}, {},
    {}, {}, {},
    {}, {}, {},
    {}, {}, {},
    {}, {}, {},
    {}, {}, {},
    {}, {}, {},
    {}, {}, {},
    {}, {}, {},
    {}, {}, {},
    {}, {}, {},
    {}, {}, {},
    {}, {}, {},
    {}, {}, {},
    {}, {}, {},
    {}, {}, {},
    {}, {}, {},
    {}, {}, {},
    {}, {}, {},
    {}, {}, {},
    {}, {}, {},
    {}, {}, {},
    {}, {}, {},
    {}, {}, {},
    {}, {}, {},
    {}, {}, {},
    {}, {}, {},
    {}, {}, {},
    {}, {}, {},
    {}, {}, {},
    {}, {}, {},
    {}, {}, {},
    {}, {}, {},
    {}, {}, {},
    {}, {}, {},
    {}, {}, {},
    {}, {}, {},
    {}, {}, {},
    {}, {}, {},
    {}, {}, {},
    {}, {}, {},
    {}, {}, {},
    {}, {}, {},
    {}, {}, {},
    {}, {}, {},
    {}, {}, {},
    {}, {}, {},
    {}, {}, {},
    {}, {}, {},
    {}, {}, {},
    {}, {}, {},
    {}, {}, {},
    {}, {}, {},
    {}, {}, {},
    {}, {}, {},
    {}, {}, {},
    {}, {}, {}
]);
